3
32
59
40	29
1	3	8	8	15	5	16	4	
2	1	16	6	
3	1	14	8	
4	2	5	12	13	6	
5	2	4	14	5	8	
6	1	16	8	
7	3	9	8	14	5	10	4	
8	3	12	7	8	6	26	2	
9	1	20	3	
10	1	23	3	
11	2	5	8	4	6	
12	1	4	14	
13	2	13	6	13	5	
14	2	5	15	9	6	
15	2	6	14	7	8	
16	1	15	7	
17	1	9	5	
18	1	6	7	
19	2	7	16	6	9	
20	1	4	14	
21	1	10	5	
22	3	14	7	14	7	14	5	
23	2	10	7	11	4	
24	3	5	13	8	7	16	4	
25	3	5	13	16	2	15	2	
26	2	7	14	29	3	
27	2	8	12	20	4	
28	2	15	7	27	2	
29	2	8	6	29	3	
30	2	11	8	10	5	
31	1	15	6	
32	3	4	11	11	7	12	4	
